NAME          
ROWS
 N  OBJ
 L  c1
 L  c2
COLUMNS
    MARKER    'MARKER'                 'INTORG'
    x[1]      c1        975
    x[1]      c2        778
    x[1]      OBJ       -438
    x[2]      c1        545
    x[2]      c2        205
    x[2]      OBJ       -749
    x[3]      c1        186
    x[3]      c2        596
    x[3]      OBJ       -750
    x[4]      c1        785
    x[4]      c2        629
    x[4]      OBJ       -202
    x[5]      c1        80
    x[5]      c2        795
    x[5]      OBJ       -149
    x[6]      c1        649
    x[6]      c2        463
    x[6]      OBJ       -805
    x[7]      c1        849
    x[7]      c2        148
    x[7]      OBJ       -147
    x[8]      c1        336
    x[8]      c2        343
    x[8]      OBJ       -232
    x[9]      c1        67
    x[9]      c2        501
    x[9]      OBJ       -744
    x[10]     c1        531
    x[10]     c2        717
    x[10]     OBJ       -920
    x[11]     c1        333
    x[11]     c2        851
    x[11]     OBJ       -265
    x[12]     c1        757
    x[12]     c2        884
    x[12]     OBJ       -30
    x[13]     c1        782
    x[13]     c2        677
    x[13]     OBJ       -855
    x[14]     c1        864
    x[14]     c2        921
    x[14]     OBJ       -735
    x[15]     c1        515
    x[15]     c2        459
    x[15]     OBJ       -811
    x[16]     c1        945
    x[16]     c2        639
    x[16]     OBJ       -369
    x[17]     c1        340
    x[17]     c2        446
    x[17]     OBJ       -201
    x[18]     c1        185
    x[18]     c2        732
    x[18]     OBJ       -929
    x[19]     c1        840
    x[19]     c2        379
    x[19]     OBJ       -685
    x[20]     c1        366
    x[20]     c2        421
    x[20]     OBJ       -971
    x[21]     c1        303
    x[21]     c2        995
    x[21]     OBJ       -366
    x[22]     c1        519
    x[22]     c2        192
    x[22]     OBJ       -161
    x[23]     c1        737
    x[23]     c2        474
    x[23]     OBJ       -383
    x[24]     c1        190
    x[24]     c2        873
    x[24]     OBJ       -55
    x[25]     c1        791
    x[25]     c2        822
    x[25]     OBJ       -722
    x[26]     c1        677
    x[26]     c2        49
    x[26]     OBJ       -7
    x[27]     c1        16
    x[27]     c2        941
    x[27]     OBJ       -398
    x[28]     c1        220
    x[28]     c2        865
    x[28]     OBJ       -220
    x[29]     c1        730
    x[29]     c2        622
    x[29]     OBJ       -754
    x[30]     c1        400
    x[30]     c2        787
    x[30]     OBJ       -531
RHS
    rhs       c1        7756
    rhs       c2        9102
RANGES
BOUNDS
 BV bounds    x[1]
 BV bounds    x[2]
 BV bounds    x[3]
 BV bounds    x[4]
 BV bounds    x[5]
 BV bounds    x[6]
 BV bounds    x[7]
 BV bounds    x[8]
 BV bounds    x[9]
 BV bounds    x[10]
 BV bounds    x[11]
 BV bounds    x[12]
 BV bounds    x[13]
 BV bounds    x[14]
 BV bounds    x[15]
 BV bounds    x[16]
 BV bounds    x[17]
 BV bounds    x[18]
 BV bounds    x[19]
 BV bounds    x[20]
 BV bounds    x[21]
 BV bounds    x[22]
 BV bounds    x[23]
 BV bounds    x[24]
 BV bounds    x[25]
 BV bounds    x[26]
 BV bounds    x[27]
 BV bounds    x[28]
 BV bounds    x[29]
 BV bounds    x[30]
ENDATA
